# Escenario generado automaticamente: normal

param alpha := 0.5;
param fecha_hoy := 45984;
param s := 100;

set I := P1 P2 P3 P4 P5 P6 P7 P8 P9 P10 P11 P12 P13 P14 P15 P16 P17 P18 P19 P20 P21 P22 P23 P24 P25 P26 P27 P28 P29 P30 P31 P32 P33 P34 P35 P36 P37 P38 P39 P40 P41 P42 P43 P44 P45 P46 P47 P48 P49 P50 P51 P52 P53 P54 P55 P56 P57 P58 P59 P60 P61 P62 P63 P64 P65 P66 P67 P68 P69 P70 P71 P72 P73 P74 P75 P76 P77 P78 P79 P80 P81 P82 P83 P84 P85 P86 P87 P88 P89 P90 P91 P92 P93 P94 P95 P96 P97 P98 P99 P100 P101 P102 P103 P104 P105 P106 P107 P108 P109 P110 P111 P112 P113 P114 P115 P116 P117 P118 P119 P120 P121 P122 P123 P124 P125 P126 P127 P128 P129 P130 P131 P132 P133 P134 P135 P136 P137 P138 P139 P140 P141 P142 P143 P144 P145 P146 P147 P148 P149 P150 P151 P152 P153 P154 P155 P156 P157 P158 P159 P160 P161 P162 P163 P164 P165 P166 P167 P168 P169 P170 P171 P172 P173 P174 P175 P176 P177 P178 P179 P180 P181 P182 P183 P184 P185 P186 P187 P188 P189 P190 P191 P192 P193 P194 P195 P196 P197 P198 P199 P200;
set C := C1 C2 C3 C4 C5 C6 C7 C8 C9 C10 C11 C12 C13 C14 C15;
set J := T1 T2 T3 T4 T5 T6 T7 T8 T9 T10;

param dist_c :=
  'C1' 50
  'C2' 31
  'C3' 49
  'C4' 47
  'C5' 86
  'C6' 43
  'C7' 67
  'C8' 58
  'C9' 47
  'C10' 89
  'C11' 42
  'C12' 55
  'C13' 96
  'C14' 76
  'C15' 7
;

param F :=
  'T1' 550
  'T2' 700
  'T3' 550
  'T4' 350
  'T5' 700
  'T6' 700
  'T7' 700
  'T8' 550
  'T9' 700
  'T10' 350
;
param ADRmax :=
  'T1' 0
  'T2' 5
  'T3' 0
  'T4' 0
  'T5' 5
  'T6' 5
  'T7' 5
  'T8' 0
  'T9' 5
  'T10' 0
;
param W :=
  'T1' 2500
  'T2' 3500
  'T3' 2500
  'T4' 1000
  'T5' 3500
  'T6' 3500
  'T7' 3500
  'T8' 2500
  'T9' 3500
  'T10' 1000
;
param V :=
  'T1' 18
  'T2' 25
  'T3' 18
  'T4' 10
  'T5' 25
  'T6' 25
  'T7' 25
  'T8' 18
  'T9' 25
  'T10' 10
;
param Pmax :=
  'T1' 5
  'T2' 6
  'T3' 5
  'T4' 5
  'T5' 10
  'T6' 6
  'T7' 7
  'T8' 10
  'T9' 8
  'T10' 10
;

param pes :=
  'P1' 185
  'P2' 241
  'P3' 127
  'P4' 103
  'P5' 147
  'P6' 293
  'P7' 249
  'P8' 251
  'P9' 101
  'P10' 218
  'P11' 261
  'P12' 286
  'P13' 157
  'P14' 164
  'P15' 262
  'P16' 227
  'P17' 248
  'P18' 109
  'P19' 167
  'P20' 231
  'P21' 122
  'P22' 270
  'P23' 105
  'P24' 204
  'P25' 157
  'P26' 290
  'P27' 115
  'P28' 149
  'P29' 238
  'P30' 171
  'P31' 233
  'P32' 118
  'P33' 156
  'P34' 169
  'P35' 272
  'P36' 261
  'P37' 219
  'P38' 213
  'P39' 185
  'P40' 298
  'P41' 132
  'P42' 221
  'P43' 125
  'P44' 300
  'P45' 235
  'P46' 243
  'P47' 238
  'P48' 137
  'P49' 178
  'P50' 166
  'P51' 187
  'P52' 285
  'P53' 206
  'P54' 226
  'P55' 299
  'P56' 106
  'P57' 145
  'P58' 236
  'P59' 210
  'P60' 117
  'P61' 266
  'P62' 146
  'P63' 216
  'P64' 215
  'P65' 165
  'P66' 100
  'P67' 229
  'P68' 144
  'P69' 292
  'P70' 285
  'P71' 235
  'P72' 174
  'P73' 293
  'P74' 106
  'P75' 268
  'P76' 239
  'P77' 216
  'P78' 293
  'P79' 177
  'P80' 121
  'P81' 234
  'P82' 148
  'P83' 113
  'P84' 292
  'P85' 299
  'P86' 104
  'P87' 229
  'P88' 144
  'P89' 142
  'P90' 299
  'P91' 155
  'P92' 190
  'P93' 176
  'P94' 107
  'P95' 198
  'P96' 231
  'P97' 136
  'P98' 126
  'P99' 127
  'P100' 255
  'P101' 109
  'P102' 166
  'P103' 146
  'P104' 152
  'P105' 171
  'P106' 134
  'P107' 228
  'P108' 173
  'P109' 144
  'P110' 180
  'P111' 272
  'P112' 131
  'P113' 185
  'P114' 140
  'P115' 209
  'P116' 172
  'P117' 278
  'P118' 151
  'P119' 132
  'P120' 196
  'P121' 198
  'P122' 185
  'P123' 125
  'P124' 255
  'P125' 249
  'P126' 209
  'P127' 238
  'P128' 283
  'P129' 200
  'P130' 183
  'P131' 117
  'P132' 244
  'P133' 267
  'P134' 152
  'P135' 195
  'P136' 137
  'P137' 225
  'P138' 271
  'P139' 236
  'P140' 181
  'P141' 274
  'P142' 163
  'P143' 180
  'P144' 164
  'P145' 189
  'P146' 218
  'P147' 210
  'P148' 228
  'P149' 115
  'P150' 184
  'P151' 282
  'P152' 145
  'P153' 111
  'P154' 298
  'P155' 265
  'P156' 149
  'P157' 220
  'P158' 119
  'P159' 173
  'P160' 196
  'P161' 113
  'P162' 101
  'P163' 211
  'P164' 257
  'P165' 241
  'P166' 213
  'P167' 226
  'P168' 120
  'P169' 214
  'P170' 127
  'P171' 258
  'P172' 112
  'P173' 188
  'P174' 206
  'P175' 189
  'P176' 167
  'P177' 180
  'P178' 101
  'P179' 141
  'P180' 174
  'P181' 233
  'P182' 280
  'P183' 225
  'P184' 211
  'P185' 191
  'P186' 235
  'P187' 281
  'P188' 118
  'P189' 145
  'P190' 176
  'P191' 106
  'P192' 227
  'P193' 248
  'P194' 255
  'P195' 153
  'P196' 196
  'P197' 258
  'P198' 262
  'P199' 262
  'P200' 145
;
param vol :=
  'P1' 1
  'P2' 2
  'P3' 1
  'P4' 3
  'P5' 2
  'P6' 2
  'P7' 1
  'P8' 2
  'P9' 1
  'P10' 2
  'P11' 2
  'P12' 2
  'P13' 2
  'P14' 2
  'P15' 2
  'P16' 1
  'P17' 1
  'P18' 3
  'P19' 1
  'P20' 2
  'P21' 3
  'P22' 3
  'P23' 1
  'P24' 2
  'P25' 1
  'P26' 1
  'P27' 1
  'P28' 1
  'P29' 3
  'P30' 3
  'P31' 1
  'P32' 3
  'P33' 3
  'P34' 1
  'P35' 2
  'P36' 2
  'P37' 3
  'P38' 3
  'P39' 3
  'P40' 3
  'P41' 3
  'P42' 3
  'P43' 1
  'P44' 3
  'P45' 3
  'P46' 3
  'P47' 1
  'P48' 2
  'P49' 1
  'P50' 3
  'P51' 2
  'P52' 1
  'P53' 1
  'P54' 1
  'P55' 2
  'P56' 3
  'P57' 2
  'P58' 2
  'P59' 3
  'P60' 2
  'P61' 2
  'P62' 3
  'P63' 2
  'P64' 3
  'P65' 2
  'P66' 2
  'P67' 2
  'P68' 2
  'P69' 1
  'P70' 3
  'P71' 3
  'P72' 2
  'P73' 3
  'P74' 2
  'P75' 3
  'P76' 3
  'P77' 2
  'P78' 3
  'P79' 1
  'P80' 2
  'P81' 1
  'P82' 2
  'P83' 3
  'P84' 1
  'P85' 1
  'P86' 3
  'P87' 1
  'P88' 2
  'P89' 2
  'P90' 3
  'P91' 1
  'P92' 1
  'P93' 2
  'P94' 3
  'P95' 3
  'P96' 3
  'P97' 2
  'P98' 1
  'P99' 1
  'P100' 2
  'P101' 1
  'P102' 3
  'P103' 2
  'P104' 1
  'P105' 2
  'P106' 1
  'P107' 2
  'P108' 1
  'P109' 3
  'P110' 3
  'P111' 2
  'P112' 2
  'P113' 2
  'P114' 2
  'P115' 1
  'P116' 1
  'P117' 1
  'P118' 1
  'P119' 2
  'P120' 2
  'P121' 1
  'P122' 3
  'P123' 2
  'P124' 3
  'P125' 3
  'P126' 1
  'P127' 3
  'P128' 3
  'P129' 2
  'P130' 3
  'P131' 3
  'P132' 3
  'P133' 2
  'P134' 1
  'P135' 1
  'P136' 2
  'P137' 2
  'P138' 1
  'P139' 1
  'P140' 1
  'P141' 3
  'P142' 2
  'P143' 2
  'P144' 2
  'P145' 1
  'P146' 1
  'P147' 1
  'P148' 1
  'P149' 3
  'P150' 2
  'P151' 2
  'P152' 1
  'P153' 2
  'P154' 1
  'P155' 2
  'P156' 3
  'P157' 3
  'P158' 1
  'P159' 1
  'P160' 1
  'P161' 1
  'P162' 3
  'P163' 2
  'P164' 1
  'P165' 3
  'P166' 3
  'P167' 3
  'P168' 1
  'P169' 2
  'P170' 3
  'P171' 3
  'P172' 1
  'P173' 3
  'P174' 1
  'P175' 2
  'P176' 2
  'P177' 2
  'P178' 1
  'P179' 3
  'P180' 2
  'P181' 1
  'P182' 1
  'P183' 2
  'P184' 1
  'P185' 2
  'P186' 2
  'P187' 2
  'P188' 1
  'P189' 2
  'P190' 2
  'P191' 3
  'P192' 1
  'P193' 1
  'P194' 3
  'P195' 3
  'P196' 2
  'P197' 2
  'P198' 2
  'P199' 1
  'P200' 2
;
param adr :=
  'P1' 1
  'P2' 0
  'P3' 0
  'P4' 0
  'P5' 0
  'P6' 0
  'P7' 0
  'P8' 1
  'P9' 0
  'P10' 0
  'P11' 0
  'P12' 1
  'P13' 0
  'P14' 0
  'P15' 0
  'P16' 0
  'P17' 1
  'P18' 0
  'P19' 0
  'P20' 1
  'P21' 0
  'P22' 0
  'P23' 0
  'P24' 0
  'P25' 0
  'P26' 0
  'P27' 0
  'P28' 0
  'P29' 0
  'P30' 0
  'P31' 0
  'P32' 0
  'P33' 0
  'P34' 0
  'P35' 0
  'P36' 0
  'P37' 1
  'P38' 0
  'P39' 0
  'P40' 0
  'P41' 0
  'P42' 0
  'P43' 0
  'P44' 0
  'P45' 0
  'P46' 0
  'P47' 1
  'P48' 0
  'P49' 0
  'P50' 0
  'P51' 0
  'P52' 0
  'P53' 1
  'P54' 0
  'P55' 0
  'P56' 0
  'P57' 1
  'P58' 0
  'P59' 0
  'P60' 0
  'P61' 0
  'P62' 0
  'P63' 0
  'P64' 0
  'P65' 0
  'P66' 0
  'P67' 0
  'P68' 0
  'P69' 0
  'P70' 0
  'P71' 0
  'P72' 0
  'P73' 0
  'P74' 0
  'P75' 0
  'P76' 1
  'P77' 1
  'P78' 0
  'P79' 0
  'P80' 0
  'P81' 0
  'P82' 0
  'P83' 0
  'P84' 0
  'P85' 0
  'P86' 0
  'P87' 0
  'P88' 0
  'P89' 0
  'P90' 1
  'P91' 0
  'P92' 0
  'P93' 0
  'P94' 0
  'P95' 0
  'P96' 0
  'P97' 0
  'P98' 0
  'P99' 0
  'P100' 0
  'P101' 0
  'P102' 0
  'P103' 0
  'P104' 0
  'P105' 0
  'P106' 1
  'P107' 0
  'P108' 0
  'P109' 0
  'P110' 0
  'P111' 0
  'P112' 0
  'P113' 0
  'P114' 0
  'P115' 0
  'P116' 1
  'P117' 1
  'P118' 0
  'P119' 0
  'P120' 0
  'P121' 1
  'P122' 0
  'P123' 0
  'P124' 0
  'P125' 0
  'P126' 0
  'P127' 0
  'P128' 1
  'P129' 0
  'P130' 0
  'P131' 0
  'P132' 0
  'P133' 0
  'P134' 0
  'P135' 0
  'P136' 0
  'P137' 0
  'P138' 0
  'P139' 0
  'P140' 0
  'P141' 0
  'P142' 0
  'P143' 0
  'P144' 0
  'P145' 1
  'P146' 0
  'P147' 0
  'P148' 1
  'P149' 0
  'P150' 0
  'P151' 0
  'P152' 0
  'P153' 0
  'P154' 0
  'P155' 1
  'P156' 0
  'P157' 0
  'P158' 0
  'P159' 0
  'P160' 0
  'P161' 0
  'P162' 0
  'P163' 0
  'P164' 0
  'P165' 0
  'P166' 1
  'P167' 1
  'P168' 0
  'P169' 0
  'P170' 0
  'P171' 0
  'P172' 0
  'P173' 0
  'P174' 1
  'P175' 0
  'P176' 0
  'P177' 0
  'P178' 0
  'P179' 0
  'P180' 0
  'P181' 0
  'P182' 0
  'P183' 1
  'P184' 0
  'P185' 0
  'P186' 0
  'P187' 1
  'P188' 0
  'P189' 0
  'P190' 0
  'P191' 0
  'P192' 0
  'P193' 0
  'P194' 0
  'P195' 0
  'P196' 0
  'P197' 1
  'P198' 0
  'P199' 0
  'P200' 0
;
param t :=
  'P1' 350
  'P2' 350
  'P3' 350
  'P4' 350
  'P5' 350
  'P6' 350
  'P7' 350
  'P8' 350
  'P9' 350
  'P10' 350
  'P11' 350
  'P12' 350
  'P13' 350
  'P14' 350
  'P15' 350
  'P16' 350
  'P17' 350
  'P18' 350
  'P19' 350
  'P20' 350
  'P21' 350
  'P22' 350
  'P23' 350
  'P24' 350
  'P25' 350
  'P26' 350
  'P27' 350
  'P28' 350
  'P29' 350
  'P30' 350
  'P31' 350
  'P32' 350
  'P33' 350
  'P34' 350
  'P35' 350
  'P36' 350
  'P37' 350
  'P38' 350
  'P39' 350
  'P40' 350
  'P41' 350
  'P42' 350
  'P43' 350
  'P44' 350
  'P45' 350
  'P46' 350
  'P47' 350
  'P48' 350
  'P49' 350
  'P50' 350
  'P51' 350
  'P52' 350
  'P53' 350
  'P54' 350
  'P55' 350
  'P56' 350
  'P57' 350
  'P58' 350
  'P59' 350
  'P60' 350
  'P61' 350
  'P62' 350
  'P63' 350
  'P64' 350
  'P65' 350
  'P66' 350
  'P67' 350
  'P68' 350
  'P69' 350
  'P70' 350
  'P71' 350
  'P72' 350
  'P73' 350
  'P74' 350
  'P75' 350
  'P76' 350
  'P77' 350
  'P78' 350
  'P79' 350
  'P80' 350
  'P81' 350
  'P82' 350
  'P83' 350
  'P84' 350
  'P85' 350
  'P86' 350
  'P87' 350
  'P88' 350
  'P89' 350
  'P90' 350
  'P91' 350
  'P92' 350
  'P93' 350
  'P94' 350
  'P95' 350
  'P96' 350
  'P97' 350
  'P98' 350
  'P99' 350
  'P100' 350
  'P101' 350
  'P102' 350
  'P103' 350
  'P104' 350
  'P105' 350
  'P106' 350
  'P107' 350
  'P108' 350
  'P109' 350
  'P110' 350
  'P111' 350
  'P112' 350
  'P113' 350
  'P114' 350
  'P115' 350
  'P116' 350
  'P117' 350
  'P118' 350
  'P119' 350
  'P120' 350
  'P121' 350
  'P122' 350
  'P123' 350
  'P124' 350
  'P125' 350
  'P126' 350
  'P127' 350
  'P128' 350
  'P129' 350
  'P130' 350
  'P131' 350
  'P132' 350
  'P133' 350
  'P134' 350
  'P135' 350
  'P136' 350
  'P137' 350
  'P138' 350
  'P139' 350
  'P140' 350
  'P141' 350
  'P142' 350
  'P143' 350
  'P144' 350
  'P145' 350
  'P146' 350
  'P147' 350
  'P148' 350
  'P149' 350
  'P150' 350
  'P151' 350
  'P152' 350
  'P153' 350
  'P154' 350
  'P155' 350
  'P156' 350
  'P157' 350
  'P158' 350
  'P159' 350
  'P160' 350
  'P161' 350
  'P162' 350
  'P163' 350
  'P164' 350
  'P165' 350
  'P166' 350
  'P167' 350
  'P168' 350
  'P169' 350
  'P170' 350
  'P171' 350
  'P172' 350
  'P173' 350
  'P174' 350
  'P175' 350
  'P176' 350
  'P177' 350
  'P178' 350
  'P179' 350
  'P180' 350
  'P181' 350
  'P182' 350
  'P183' 350
  'P184' 350
  'P185' 350
  'P186' 350
  'P187' 350
  'P188' 350
  'P189' 350
  'P190' 350
  'P191' 350
  'P192' 350
  'P193' 350
  'P194' 350
  'P195' 350
  'P196' 350
  'P197' 350
  'P198' 350
  'P199' 350
  'P200' 350
;
param fecha :=
  'P1' 45985
  'P2' 45984
  'P3' 45985
  'P4' 45984
  'P5' 45984
  'P6' 45984
  'P7' 45984
  'P8' 45984
  'P9' 45984
  'P10' 45985
  'P11' 45985
  'P12' 45984
  'P13' 45984
  'P14' 45985
  'P15' 45984
  'P16' 45985
  'P17' 45985
  'P18' 45984
  'P19' 45985
  'P20' 45984
  'P21' 45985
  'P22' 45984
  'P23' 45984
  'P24' 45984
  'P25' 45984
  'P26' 45984
  'P27' 45984
  'P28' 45985
  'P29' 45984
  'P30' 45984
  'P31' 45984
  'P32' 45985
  'P33' 45984
  'P34' 45984
  'P35' 45984
  'P36' 45984
  'P37' 45984
  'P38' 45985
  'P39' 45984
  'P40' 45984
  'P41' 45985
  'P42' 45984
  'P43' 45984
  'P44' 45984
  'P45' 45984
  'P46' 45985
  'P47' 45984
  'P48' 45984
  'P49' 45984
  'P50' 45984
  'P51' 45984
  'P52' 45984
  'P53' 45984
  'P54' 45984
  'P55' 45984
  'P56' 45985
  'P57' 45984
  'P58' 45984
  'P59' 45985
  'P60' 45984
  'P61' 45984
  'P62' 45984
  'P63' 45984
  'P64' 45984
  'P65' 45984
  'P66' 45984
  'P67' 45984
  'P68' 45984
  'P69' 45984
  'P70' 45984
  'P71' 45984
  'P72' 45985
  'P73' 45984
  'P74' 45985
  'P75' 45985
  'P76' 45984
  'P77' 45984
  'P78' 45985
  'P79' 45985
  'P80' 45985
  'P81' 45984
  'P82' 45985
  'P83' 45984
  'P84' 45984
  'P85' 45985
  'P86' 45985
  'P87' 45984
  'P88' 45984
  'P89' 45984
  'P90' 45984
  'P91' 45984
  'P92' 45984
  'P93' 45984
  'P94' 45984
  'P95' 45984
  'P96' 45984
  'P97' 45984
  'P98' 45984
  'P99' 45984
  'P100' 45984
  'P101' 45984
  'P102' 45985
  'P103' 45985
  'P104' 45984
  'P105' 45985
  'P106' 45985
  'P107' 45984
  'P108' 45984
  'P109' 45985
  'P110' 45985
  'P111' 45984
  'P112' 45985
  'P113' 45985
  'P114' 45985
  'P115' 45984
  'P116' 45985
  'P117' 45984
  'P118' 45984
  'P119' 45984
  'P120' 45984
  'P121' 45984
  'P122' 45984
  'P123' 45984
  'P124' 45984
  'P125' 45984
  'P126' 45984
  'P127' 45984
  'P128' 45984
  'P129' 45985
  'P130' 45985
  'P131' 45985
  'P132' 45984
  'P133' 45985
  'P134' 45984
  'P135' 45984
  'P136' 45984
  'P137' 45984
  'P138' 45985
  'P139' 45984
  'P140' 45985
  'P141' 45984
  'P142' 45984
  'P143' 45984
  'P144' 45985
  'P145' 45984
  'P146' 45984
  'P147' 45985
  'P148' 45985
  'P149' 45985
  'P150' 45984
  'P151' 45984
  'P152' 45984
  'P153' 45984
  'P154' 45985
  'P155' 45985
  'P156' 45985
  'P157' 45985
  'P158' 45984
  'P159' 45985
  'P160' 45984
  'P161' 45984
  'P162' 45984
  'P163' 45985
  'P164' 45984
  'P165' 45984
  'P166' 45985
  'P167' 45984
  'P168' 45984
  'P169' 45984
  'P170' 45985
  'P171' 45984
  'P172' 45984
  'P173' 45984
  'P174' 45984
  'P175' 45985
  'P176' 45985
  'P177' 45985
  'P178' 45984
  'P179' 45984
  'P180' 45985
  'P181' 45985
  'P182' 45984
  'P183' 45984
  'P184' 45985
  'P185' 45985
  'P186' 45984
  'P187' 45984
  'P188' 45984
  'P189' 45984
  'P190' 45984
  'P191' 45984
  'P192' 45985
  'P193' 45985
  'P194' 45984
  'P195' 45984
  'P196' 45984
  'P197' 45984
  'P198' 45985
  'P199' 45985
  'P200' 45984
;
param cli :=
  'P1' 'C11'
  'P2' 'C9'
  'P3' 'C3'
  'P4' 'C11'
  'P5' 'C2'
  'P6' 'C11'
  'P7' 'C15'
  'P8' 'C2'
  'P9' 'C10'
  'P10' 'C8'
  'P11' 'C14'
  'P12' 'C13'
  'P13' 'C12'
  'P14' 'C1'
  'P15' 'C3'
  'P16' 'C4'
  'P17' 'C7'
  'P18' 'C9'
  'P19' 'C3'
  'P20' 'C11'
  'P21' 'C9'
  'P22' 'C14'
  'P23' 'C13'
  'P24' 'C4'
  'P25' 'C14'
  'P26' 'C1'
  'P27' 'C8'
  'P28' 'C9'
  'P29' 'C6'
  'P30' 'C11'
  'P31' 'C6'
  'P32' 'C8'
  'P33' 'C7'
  'P34' 'C2'
  'P35' 'C6'
  'P36' 'C7'
  'P37' 'C1'
  'P38' 'C4'
  'P39' 'C12'
  'P40' 'C12'
  'P41' 'C13'
  'P42' 'C14'
  'P43' 'C8'
  'P44' 'C10'
  'P45' 'C10'
  'P46' 'C14'
  'P47' 'C12'
  'P48' 'C7'
  'P49' 'C5'
  'P50' 'C6'
  'P51' 'C15'
  'P52' 'C13'
  'P53' 'C11'
  'P54' 'C13'
  'P55' 'C7'
  'P56' 'C11'
  'P57' 'C2'
  'P58' 'C14'
  'P59' 'C3'
  'P60' 'C12'
  'P61' 'C13'
  'P62' 'C8'
  'P63' 'C6'
  'P64' 'C12'
  'P65' 'C11'
  'P66' 'C15'
  'P67' 'C7'
  'P68' 'C3'
  'P69' 'C4'
  'P70' 'C7'
  'P71' 'C8'
  'P72' 'C7'
  'P73' 'C3'
  'P74' 'C1'
  'P75' 'C7'
  'P76' 'C1'
  'P77' 'C7'
  'P78' 'C14'
  'P79' 'C15'
  'P80' 'C3'
  'P81' 'C8'
  'P82' 'C4'
  'P83' 'C12'
  'P84' 'C11'
  'P85' 'C11'
  'P86' 'C6'
  'P87' 'C6'
  'P88' 'C8'
  'P89' 'C9'
  'P90' 'C9'
  'P91' 'C14'
  'P92' 'C5'
  'P93' 'C5'
  'P94' 'C5'
  'P95' 'C7'
  'P96' 'C5'
  'P97' 'C13'
  'P98' 'C11'
  'P99' 'C15'
  'P100' 'C3'
  'P101' 'C4'
  'P102' 'C10'
  'P103' 'C7'
  'P104' 'C7'
  'P105' 'C6'
  'P106' 'C7'
  'P107' 'C1'
  'P108' 'C11'
  'P109' 'C3'
  'P110' 'C13'
  'P111' 'C5'
  'P112' 'C14'
  'P113' 'C4'
  'P114' 'C2'
  'P115' 'C2'
  'P116' 'C6'
  'P117' 'C9'
  'P118' 'C15'
  'P119' 'C13'
  'P120' 'C10'
  'P121' 'C12'
  'P122' 'C6'
  'P123' 'C1'
  'P124' 'C2'
  'P125' 'C3'
  'P126' 'C8'
  'P127' 'C10'
  'P128' 'C7'
  'P129' 'C8'
  'P130' 'C13'
  'P131' 'C4'
  'P132' 'C5'
  'P133' 'C14'
  'P134' 'C14'
  'P135' 'C9'
  'P136' 'C3'
  'P137' 'C10'
  'P138' 'C2'
  'P139' 'C1'
  'P140' 'C13'
  'P141' 'C8'
  'P142' 'C10'
  'P143' 'C12'
  'P144' 'C5'
  'P145' 'C5'
  'P146' 'C5'
  'P147' 'C15'
  'P148' 'C13'
  'P149' 'C4'
  'P150' 'C13'
  'P151' 'C6'
  'P152' 'C14'
  'P153' 'C15'
  'P154' 'C7'
  'P155' 'C15'
  'P156' 'C8'
  'P157' 'C13'
  'P158' 'C5'
  'P159' 'C9'
  'P160' 'C10'
  'P161' 'C14'
  'P162' 'C6'
  'P163' 'C11'
  'P164' 'C15'
  'P165' 'C3'
  'P166' 'C15'
  'P167' 'C6'
  'P168' 'C13'
  'P169' 'C11'
  'P170' 'C10'
  'P171' 'C10'
  'P172' 'C10'
  'P173' 'C4'
  'P174' 'C5'
  'P175' 'C6'
  'P176' 'C15'
  'P177' 'C5'
  'P178' 'C4'
  'P179' 'C13'
  'P180' 'C3'
  'P181' 'C7'
  'P182' 'C12'
  'P183' 'C12'
  'P184' 'C14'
  'P185' 'C5'
  'P186' 'C5'
  'P187' 'C15'
  'P188' 'C11'
  'P189' 'C14'
  'P190' 'C13'
  'P191' 'C1'
  'P192' 'C12'
  'P193' 'C12'
  'P194' 'C11'
  'P195' 'C3'
  'P196' 'C3'
  'P197' 'C14'
  'P198' 'C1'
  'P199' 'C6'
  'P200' 'C9'
;
